100 10
897 618
130 617
198 320
606 481
277 748
495 547
311 305
681 338
587 764
344 809
565 450
479 440
531 629
425 703
196 495
168 707
593 717
701 651
789 831
549 489
509 579
562 71
615 89
320 65
720 591
43 634
760 610
336 843
631 739
651 326
305 175
301 842
80 722
546 757
511 279
558 727
295 405
887 635
291 730
309 776
452 330
681 871
894 689
588 421
336 576
519 684
231 859
584 572
744 353
814 384
571 734
389 401
334 871
610 825
343 366
132 758
497 677
252 620
814 493
751 372
726 552
382 649
486 329
538 199
627 875
521 965
573 618
783 263
733 617
282 908
797 625
338 619
317 675
232 490
541 703
560 349
211 827
264 700
698 697
482 390
849 609
512 507
366 625
514 541
365 635
44 760
765 446
409 634
186 467
273 744
429 607
590 505
482 459
310 826
307 443
335 261
684 488
418 264
478 538
356 640
